
n_res = 8;
rcap = [59, 47, 61, 59, 610, 704, 649, 577];
rtype = [1, 1, 1, 1, 2, 2, 2, 2];
n_tasks = 50;
modes =  [{1, 2, 3, 4, 5, 6, 7, 8, 9}, {10, 11, 12, 13, 14, 15, 16, 17, 18}, {19, 20, 21, 22, 23, 24, 25, 26, 27}, {28, 29, 30, 31, 32, 33, 34, 35, 36}, {37, 38, 39, 40, 41, 42, 43, 44, 45}, {46, 47, 48, 49, 50, 51, 52, 53, 54}, {55, 56, 57, 58, 59, 60, 61, 62, 63}, {64, 65, 66, 67, 68, 69, 70, 71, 72}, {73, 74, 75, 76, 77, 78, 79, 80, 81}, {82, 83, 84, 85, 86, 87, 88, 89, 90}, {91, 92, 93, 94, 95, 96, 97, 98, 99}, {100, 101, 102, 103, 104, 105, 106, 107, 108}, {109, 110, 111, 112, 113, 114, 115, 116, 117}, {118, 119, 120, 121, 122, 123, 124, 125, 126}, {127, 128, 129, 130, 131, 132, 133, 134, 135}, {136, 137, 138, 139, 140, 141, 142, 143, 144}, {145, 146, 147, 148, 149, 150, 151, 152, 153}, {154, 155, 156, 157, 158, 159, 160, 161, 162}, {163, 164, 165, 166, 167, 168, 169, 170, 171}, {172, 173, 174, 175, 176, 177, 178, 179, 180}, {181, 182, 183, 184, 185, 186, 187, 188, 189}, {190, 191, 192, 193, 194, 195, 196, 197, 198}, {199, 200, 201, 202, 203, 204, 205, 206, 207}, {208, 209, 210, 211, 212, 213, 214, 215, 216}, {217, 218, 219, 220, 221, 222, 223, 224, 225}, {226, 227, 228, 229, 230, 231, 232, 233, 234}, {235, 236, 237, 238, 239, 240, 241, 242, 243}, {244, 245, 246, 247, 248, 249, 250, 251, 252}, {253, 254, 255, 256, 257, 258, 259, 260, 261}, {262, 263, 264, 265, 266, 267, 268, 269, 270}, {271, 272, 273, 274, 275, 276, 277, 278, 279}, {280, 281, 282, 283, 284, 285, 286, 287, 288}, {289, 290, 291, 292, 293, 294, 295, 296, 297}, {298, 299, 300, 301, 302, 303, 304, 305, 306}, {307, 308, 309, 310, 311, 312, 313, 314, 315}, {316, 317, 318, 319, 320, 321, 322, 323, 324}, {325, 326, 327, 328, 329, 330, 331, 332, 333}, {334, 335, 336, 337, 338, 339, 340, 341, 342}, {343, 344, 345, 346, 347, 348, 349, 350, 351}, {352, 353, 354, 355, 356, 357, 358, 359, 360}, {361, 362, 363, 364, 365, 366, 367, 368, 369}, {370, 371, 372, 373, 374, 375, 376, 377, 378}, {379, 380, 381, 382, 383, 384, 385, 386, 387}, {388, 389, 390, 391, 392, 393, 394, 395, 396}, {397, 398, 399, 400, 401, 402, 403, 404, 405}, {406, 407, 408, 409, 410, 411, 412, 413, 414}, {415, 416, 417, 418, 419, 420, 421, 422, 423}, {424, 425, 426, 427, 428, 429, 430, 431, 432}, {433, 434, 435, 436, 437, 438, 439, 440, 441}, {442, 443, 444, 445, 446, 447, 448, 449, 450}];
succ =  [{16, 11, 10, 8, 6}, {16, 8, 7}, {18, 15, 11, 10, 9}, {17, 16, 13, 8}, {16, 11, 10, 9}, {15, 13, 9}, {19, 18, 17, 15, 14}, {18, 9}, {22, 12}, {23, 22, 19, 14}, {23, 14, 13}, {23, 19, 14}, {29, 27, 25, 24, 22, 20}, {29, 25, 21, 20}, {29, 27, 24, 22, 20}, {29, 19}, {29, 27, 25, 24, 23}, {29, 27, 24, 22}, {27, 24, 20}, {31, 30, 28, 26}, {27, 24}, {35, 31, 30, 26}, {45, 35, 33, 32, 31, 30}, {36, 31, 26}, {45, 36, 33, 30}, {45, 34, 33, 32}, {45, 35, 34, 32}, {41, 39, 38, 36, 35, 34}, {41, 35, 34, 33}, {50, 41, 39, 38, 34}, {50, 41, 38, 34}, {50, 44, 41, 40, 39, 38}, {50, 44, 42, 40, 39, 38}, {44, 43, 42, 40, 37}, {50, 48, 43, 42, 40}, {50, 49, 48, 47, 42}, {49, 48, 46}, {46, 43}, {48, 43}, {49, 46}, {42}, {46}, {47}, {46}, {47}, {}, {}, {}, {}, {}];
n_opt = 450;
dur = [3, 9, 10, 14, 17, 18, 19, 28, 29, 7, 8, 13, 18, 20, 26, 27, 28, 29, 4, 11, 12, 23, 24, 25, 28, 29, 30, 3, 4, 9, 12, 17, 22, 24, 26, 28, 3, 4, 5, 7, 10, 16, 24, 26, 28, 3, 4, 6, 9, 13, 18, 27, 28, 30, 1, 5, 8, 11, 13, 14, 21, 25, 28, 2, 3, 5, 6, 8, 15, 19, 27, 28, 2, 3, 10, 12, 18, 21, 26, 27, 29, 1, 2, 10, 13, 19, 20, 22, 23, 24, 2, 3, 9, 10, 13, 14, 24, 26, 30, 2, 9, 10, 11, 12, 24, 26, 28, 30, 4, 10, 12, 16, 18, 20, 23, 29, 30, 4, 5, 13, 14, 16, 17, 20, 22, 27, 3, 4, 9, 18, 21, 22, 23, 29, 30, 5, 8, 9, 15, 16, 18, 27, 28, 29, 3, 4, 5, 6, 7, 9, 16, 22, 23, 8, 10, 11, 12, 25, 27, 28, 29, 30, 3, 5, 6, 8, 9, 11, 12, 16, 26, 4, 9, 10, 12, 14, 19, 20, 23, 24, 5, 7, 15, 16, 17, 21, 24, 28, 29, 5, 6, 9, 15, 16, 17, 18, 20, 29, 3, 5, 7, 8, 12, 13, 16, 19, 20, 2, 3, 4, 9, 12, 19, 20, 26, 28, 2, 7, 14, 18, 20, 24, 26, 27, 28, 1, 6, 7, 11, 12, 13, 23, 27, 28, 8, 10, 11, 13, 14, 17, 19, 20, 22, 1, 6, 10, 13, 15, 21, 25, 27, 28, 1, 2, 6, 9, 12, 14, 19, 24, 30, 4, 8, 9, 10, 13, 19, 22, 23, 28, 1, 3, 5, 8, 9, 10, 11, 12, 18, 1, 3, 4, 13, 20, 25, 28, 29, 30, 2, 3, 17, 20, 21, 22, 25, 28, 29, 2, 3, 6, 9, 10, 12, 17, 19, 28, 6, 8, 9, 14, 16, 24, 27, 28, 30, 7, 8, 10, 16, 22, 23, 27, 28, 30, 4, 7, 8, 10, 11, 17, 18, 20, 24, 1, 2, 3, 5, 19, 26, 27, 28, 29, 2, 5, 8, 9, 10, 18, 20, 21, 29, 4, 8, 15, 18, 23, 24, 25, 27, 29, 5, 7, 9, 11, 15, 18, 20, 21, 30, 3, 4, 5, 10, 15, 18, 26, 27, 28, 10, 12, 13, 15, 22, 23, 25, 26, 28, 2, 4, 6, 17, 18, 19, 22, 26, 30, 1, 3, 5, 6, 11, 12, 15, 21, 30, 5, 8, 10, 14, 18, 21, 24, 25, 26, 2, 3, 7, 10, 11, 14, 23, 24, 30, 1, 8, 9, 15, 19, 20, 21, 23, 25, 1, 4, 5, 6, 8, 11, 19, 26, 27, 4, 5, 8, 9, 14, 16, 17, 18, 20];
rreq = [|26, 24, 24, 21, 20, 20, 17, 15, 14, 26, 23, 21, 17, 15, 12, 11, 6, 5, 25, 22, 21, 19, 17, 15, 13, 12, 9, 16, 16, 16, 16, 16, 16, 16, 16, 16, 23, 22, 22, 21, 20, 20, 20, 19, 19, 20, 19, 17, 16, 16, 15, 14, 12, 11, 26, 25, 24, 23, 23, 22, 21, 21, 20, 19, 18, 16, 15, 12, 12, 10, 7, 7, 26, 24, 22, 19, 17, 15, 15, 10, 8, 13, 11, 10, 8, 7, 7, 5, 3, 2, 24, 22, 21, 20, 18, 13, 12, 11, 8, 28, 25, 24, 23, 22, 22, 20, 19, 18, 26, 23, 21, 21, 20, 17, 15, 15, 14, 26, 26, 24, 24, 22, 21, 20, 20, 19, 30, 24, 21, 17, 16, 11, 10, 6, 1, 12, 11, 10, 9, 7, 6, 6, 5, 4, 25, 23, 22, 21, 19, 19, 17, 16, 15, 30, 28, 27, 26, 23, 22, 21, 21, 20, 22, 21, 19, 16, 14, 12, 10, 8, 6, 28, 25, 23, 23, 21, 17, 17, 14, 12, 18, 17, 17, 17, 16, 15, 15, 14, 14, 9, 9, 8, 7, 5, 4, 4, 3, 2, 10, 10, 8, 8, 5, 4, 4, 2, 2, 17, 16, 13, 12, 10, 10, 7, 6, 4, 26, 23, 22, 22, 19, 17, 15, 13, 13, 26, 24, 23, 19, 17, 14, 11, 8, 8, 21, 20, 20, 18, 17, 16, 16, 15, 14, 25, 25, 24, 23, 22, 22, 22, 21, 20, 22, 22, 21, 21, 20, 19, 19, 19, 18, 27, 24, 22, 21, 20, 18, 18, 15, 15, 23, 23, 21, 18, 15, 13, 11, 7, 6, 29, 26, 25, 23, 23, 22, 19, 18, 17, 16, 15, 13, 13, 12, 10, 9, 8, 8, 5, 5, 5, 5, 4, 4, 4, 4, 4, 19, 18, 17, 14, 13, 10, 10, 7, 6, 14, 14, 14, 14, 13, 13, 13, 13, 13, 20, 19, 18, 16, 16, 14, 12, 11, 11, 12, 11, 11, 10, 10, 10, 9, 9, 9, 27, 27, 23, 23, 20, 18, 15, 12, 9, 13, 13, 13, 13, 13, 13, 13, 13, 13, 10, 10, 9, 7, 6, 5, 4, 3, 2, 2, 1, 1, 1, 1, 1, 1, 1, 1, 23, 19, 18, 14, 13, 12, 8, 8, 5, 9, 8, 8, 7, 7, 7, 7, 6, 6, 23, 22, 20, 15, 13, 11, 10, 8, 5, 4, 4, 4, 4, 4, 4, 4, 4, 4, 27, 24, 24, 18, 18, 15, 13, 8, 5, 27, 26, 22, 21, 19, 17, 16, 14, 12, 28, 26, 24, 24, 22, 19, 19, 17, 16, 25, 23, 22, 20, 18, 16, 14, 11, 9
 |26, 26, 26, 26, 26, 26, 26, 26, 26, 1, 1, 1, 1, 1, 1, 1, 1, 1, 10, 9, 9, 9, 8, 7, 6, 5, 5, 17, 17, 15, 14, 14, 11, 10, 10, 9, 28, 28, 28, 28, 28, 28, 28, 28, 28, 28, 25, 23, 19, 17, 13, 13, 8, 5, 21, 19, 15, 15, 11, 9, 6, 4, 2, 13, 12, 12, 12, 11, 11, 10, 9, 9, 15, 14, 14, 14, 14, 14, 14, 14, 14, 21, 18, 16, 14, 14, 12, 11, 9, 7, 30, 26, 26, 23, 23, 20, 20, 17, 15, 19, 19, 19, 19, 19, 19, 19, 19, 19, 23, 22, 22, 22, 21, 21, 21, 21, 21, 25, 23, 21, 19, 18, 16, 15, 14, 11, 14, 11, 11, 10, 7, 6, 5, 5, 3, 18, 15, 15, 14, 12, 11, 8, 7, 6, 13, 13, 11, 11, 9, 8, 8, 6, 5, 15, 13, 10, 9, 8, 7, 4, 3, 2, 9, 9, 7, 6, 6, 4, 3, 3, 2, 21, 19, 18, 18, 17, 17, 16, 14, 14, 24, 21, 19, 18, 14, 12, 11, 7, 3, 15, 13, 13, 11, 11, 11, 9, 8, 8, 9, 8, 8, 7, 7, 7, 6, 6, 5, 25, 23, 22, 21, 20, 18, 17, 17, 16, 8, 8, 6, 5, 5, 4, 2, 1, 1, 11, 10, 10, 10, 9, 9, 9, 9, 9, 26, 24, 23, 20, 17, 16, 14, 12, 9, 16, 16, 15, 13, 13, 10, 10, 8, 7, 20, 20, 18, 13, 10, 10, 5, 5, 1, 27, 26, 25, 25, 24, 23, 21, 21, 20, 7, 7, 7, 6, 6, 6, 5, 5, 5, 17, 13, 13, 11, 8, 7, 5, 3, 2, 29, 29, 27, 27, 26, 25, 24, 23, 23, 23, 19, 17, 16, 13, 11, 9, 8, 5, 3, 2, 2, 2, 2, 2, 2, 2, 2, 3, 2, 2, 2, 2, 2, 2, 2, 2, 24, 23, 21, 20, 17, 17, 16, 14, 12, 25, 25, 24, 24, 23, 23, 22, 22, 21, 23, 23, 23, 23, 23, 22, 22, 22, 22, 23, 20, 20, 17, 16, 15, 14, 13, 11, 12, 11, 11, 11, 10, 10, 10, 10, 10, 20, 19, 19, 19, 18, 18, 17, 17, 16, 25, 22, 21, 21, 19, 18, 15, 13, 13, 8, 8, 7, 7, 6, 5, 5, 3, 3, 23, 22, 18, 17, 16, 11, 11, 9, 7, 24, 24, 24, 24, 23, 23, 23, 23, 23, 7, 7, 7, 6, 6, 6, 5, 5, 5, 19, 18, 18, 17, 17, 17, 17, 16, 16, 29, 27, 23, 22, 20, 16, 15, 14, 10, 13, 12, 11, 10, 9, 8, 8, 7, 5
 |24, 24, 24, 24, 24, 24, 24, 24, 24, 16, 14, 12, 10, 9, 7, 5, 4, 2, 28, 24, 22, 20, 18, 16, 16, 14, 12, 22, 21, 21, 21, 21, 21, 21, 21, 21, 20, 19, 17, 16, 16, 14, 13, 13, 11, 25, 24, 21, 15, 12, 10, 8, 3, 3, 4, 4, 4, 3, 3, 3, 3, 2, 2, 20, 19, 18, 17, 16, 14, 13, 13, 11, 24, 21, 20, 17, 17, 14, 13, 11, 7, 16, 15, 13, 13, 12, 11, 9, 8, 7, 27, 26, 26, 25, 25, 24, 23, 23, 22, 27, 26, 26, 25, 25, 25, 24, 23, 23, 20, 20, 16, 16, 12, 10, 10, 6, 5, 20, 18, 18, 16, 16, 14, 13, 11, 10, 28, 28, 28, 27, 26, 26, 26, 25, 25, 22, 19, 18, 18, 16, 15, 14, 13, 12, 11, 10, 10, 9, 9, 8, 8, 7, 7, 18, 18, 16, 16, 15, 13, 12, 12, 10, 8, 7, 7, 5, 5, 4, 4, 3, 2, 28, 24, 20, 19, 15, 13, 10, 6, 3, 30, 29, 28, 28, 27, 27, 26, 26, 26, 27, 25, 24, 22, 18, 16, 15, 10, 10, 24, 21, 20, 18, 17, 16, 16, 13, 12, 11, 11, 10, 10, 9, 8, 8, 7, 6, 22, 22, 17, 16, 13, 10, 8, 5, 3, 21, 18, 14, 14, 10, 7, 5, 5, 3, 26, 25, 22, 21, 19, 19, 16, 14, 13, 11, 11, 9, 8, 7, 7, 5, 5, 4, 26, 23, 21, 18, 18, 15, 12, 10, 9, 27, 26, 26, 25, 25, 24, 23, 23, 23, 8, 8, 8, 8, 7, 7, 7, 7, 7, 22, 20, 20, 19, 16, 15, 14, 14, 12, 24, 21, 20, 19, 15, 15, 12, 9, 8, 15, 15, 15, 14, 14, 13, 13, 12, 12, 13, 12, 11, 9, 8, 7, 6, 5, 5, 12, 12, 11, 11, 11, 10, 9, 9, 9, 26, 25, 24, 24, 23, 22, 22, 21, 20, 27, 26, 24, 23, 20, 19, 18, 17, 15, 24, 24, 24, 24, 24, 24, 24, 24, 24, 28, 28, 25, 23, 20, 20, 18, 16, 13, 30, 25, 21, 19, 16, 15, 9, 7, 5, 23, 21, 18, 15, 14, 11, 7, 5, 3, 27, 25, 25, 24, 22, 22, 21, 19, 18, 23, 22, 22, 22, 21, 21, 21, 21, 21, 24, 19, 19, 15, 14, 11, 10, 7, 4, 13, 10, 10, 9, 7, 6, 4, 3, 1, 30, 28, 28, 28, 27, 27, 26, 26, 25, 27, 26, 24, 24, 21, 21, 19, 17, 16, 26, 25, 25, 25, 25, 25, 25, 25, 25, 28, 26, 25, 25, 24, 23, 23, 21, 21
 |27, 25, 23, 21, 19, 17, 16, 14, 12, 24, 20, 20, 16, 15, 13, 11, 9, 7, 7, 6, 5, 4, 4, 3, 3, 1, 1, 27, 24, 22, 18, 18, 15, 13, 8, 6, 29, 25, 24, 21, 19, 19, 16, 14, 13, 26, 24, 24, 24, 22, 22, 22, 20, 20, 9, 8, 8, 8, 8, 8, 8, 8, 8, 17, 16, 15, 15, 14, 13, 11, 11, 9, 26, 24, 22, 20, 18, 16, 16, 13, 11, 11, 9, 9, 8, 7, 4, 4, 2, 2, 20, 20, 20, 20, 19, 19, 19, 19, 19, 27, 23, 22, 21, 18, 13, 13, 9, 8, 25, 24, 22, 19, 19, 16, 16, 14, 12, 22, 20, 16, 15, 13, 9, 9, 4, 2, 25, 24, 23, 22, 22, 22, 21, 20, 20, 16, 14, 13, 13, 10, 10, 8, 7, 6, 29, 27, 26, 23, 21, 18, 16, 14, 13, 28, 24, 23, 22, 20, 18, 18, 15, 14, 15, 14, 12, 12, 11, 8, 7, 6, 5, 25, 22, 21, 18, 16, 12, 10, 6, 5, 6, 5, 4, 4, 3, 3, 2, 1, 1, 22, 18, 16, 14, 14, 12, 8, 7, 6, 21, 21, 20, 19, 18, 16, 15, 15, 14, 12, 12, 10, 10, 9, 8, 7, 6, 6, 27, 26, 26, 25, 24, 24, 24, 23, 23, 28, 28, 26, 26, 25, 24, 22, 21, 20, 11, 11, 11, 11, 11, 10, 10, 10, 10, 15, 15, 12, 10, 8, 6, 5, 3, 1, 4, 4, 4, 4, 4, 4, 4, 4, 4, 21, 20, 19, 19, 18, 18, 18, 17, 17, 22, 21, 20, 17, 14, 13, 9, 8, 6, 8, 7, 6, 5, 5, 4, 4, 2, 2, 19, 19, 19, 19, 19, 19, 19, 19, 19, 27, 27, 26, 26, 25, 24, 24, 23, 23, 10, 9, 7, 6, 6, 5, 4, 4, 3, 17, 16, 14, 10, 10, 8, 6, 4, 1, 11, 11, 10, 9, 8, 8, 7, 6, 5, 27, 25, 24, 24, 22, 21, 20, 20, 18, 17, 16, 16, 16, 16, 15, 15, 15, 15, 19, 15, 14, 11, 10, 9, 8, 4, 4, 27, 27, 25, 24, 24, 21, 20, 20, 18, 21, 19, 19, 17, 13, 12, 10, 7, 6, 16, 15, 14, 12, 11, 10, 9, 8, 8, 15, 15, 15, 15, 14, 14, 14, 14, 14, 24, 20, 19, 17, 13, 11, 8, 6, 3, 4, 4, 3, 3, 2, 2, 1, 1, 1, 30, 26, 26, 24, 21, 18, 17, 15, 13, 17, 15, 15, 14, 12, 11, 10, 7, 7, 24, 24, 24, 23, 22, 22, 21, 21, 21, 9, 8, 7, 6, 5, 5, 5, 3, 3
 |22, 22, 19, 19, 16, 16, 14, 13, 11, 19, 17, 15, 13, 10, 10, 8, 5, 3, 23, 21, 18, 17, 14, 12, 10, 6, 5, 21, 20, 19, 18, 17, 16, 16, 15, 14, 14, 14, 14, 14, 13, 13, 12, 12, 12, 26, 23, 21, 20, 18, 17, 14, 11, 10, 10, 9, 9, 8, 7, 5, 4, 3, 3, 14, 14, 14, 14, 13, 13, 13, 12, 12, 7, 7, 7, 7, 6, 6, 6, 5, 5, 14, 14, 14, 14, 14, 13, 13, 13, 13, 11, 9, 9, 9, 8, 7, 6, 5, 5, 15, 15, 15, 14, 14, 14, 13, 13, 13, 21, 18, 17, 15, 10, 8, 8, 5, 4, 10, 10, 9, 8, 8, 7, 6, 6, 5, 13, 13, 11, 10, 9, 8, 8, 6, 6, 20, 19, 19, 18, 17, 17, 17, 16, 15, 13, 12, 11, 10, 8, 7, 7, 5, 5, 15, 14, 13, 13, 13, 12, 12, 11, 11, 23, 20, 20, 18, 16, 16, 13, 12, 12, 27, 26, 23, 20, 16, 14, 14, 8, 8, 7, 6, 5, 5, 4, 4, 2, 2, 1, 27, 26, 26, 26, 26, 25, 25, 25, 25, 26, 23, 21, 20, 17, 17, 15, 11, 9, 26, 22, 20, 16, 14, 11, 7, 5, 2, 6, 6, 6, 6, 5, 5, 5, 4, 4, 15, 11, 11, 8, 8, 6, 4, 2, 2, 15, 15, 15, 14, 14, 13, 12, 12, 12, 20, 19, 18, 17, 16, 15, 15, 13, 12, 28, 25, 24, 22, 20, 19, 19, 16, 15, 24, 23, 23, 23, 23, 23, 23, 23, 23, 9, 8, 8, 8, 8, 7, 7, 7, 7, 19, 17, 15, 14, 11, 9, 8, 5, 3, 14, 13, 12, 12, 11, 11, 10, 10, 10, 13, 13, 12, 10, 10, 8, 7, 7, 6, 27, 26, 26, 26, 26, 25, 25, 25, 25, 28, 28, 28, 27, 26, 26, 26, 25, 25, 17, 14, 13, 12, 9, 8, 7, 5, 3, 8, 7, 7, 7, 6, 6, 6, 6, 6, 25, 24, 23, 21, 16, 14, 11, 10, 7, 10, 8, 7, 7, 5, 4, 3, 2, 2, 22, 20, 20, 19, 19, 19, 18, 17, 17, 22, 22, 20, 19, 16, 16, 13, 12, 11, 29, 28, 26, 25, 25, 24, 23, 23, 22, 16, 16, 16, 15, 15, 15, 15, 14, 14, 27, 26, 25, 24, 24, 23, 23, 22, 22, 14, 13, 12, 12, 11, 11, 10, 9, 8, 30, 28, 27, 24, 24, 22, 21, 20, 19, 15, 13, 12, 11, 9, 9, 8, 7, 6, 15, 15, 15, 14, 14, 13, 13, 12, 12, 11, 11, 11, 11, 11, 11, 11, 11, 11
 |4, 4, 4, 4, 4, 4, 4, 4, 4, 27, 25, 24, 23, 18, 16, 16, 13, 10, 15, 13, 11, 10, 8, 8, 5, 3, 3, 20, 16, 16, 13, 9, 8, 6, 4, 1, 18, 17, 16, 14, 14, 13, 11, 11, 10, 29, 27, 27, 25, 23, 22, 22, 19, 19, 9, 7, 7, 6, 5, 3, 3, 1, 1, 30, 28, 27, 27, 26, 25, 24, 22, 22, 24, 21, 20, 19, 16, 14, 12, 12, 9, 27, 24, 24, 23, 22, 20, 20, 19, 18, 6, 6, 5, 5, 3, 3, 2, 2, 1, 14, 13, 13, 13, 13, 13, 13, 13, 13, 25, 22, 22, 21, 18, 17, 17, 14, 13, 20, 20, 19, 17, 17, 15, 14, 13, 13, 27, 27, 26, 24, 24, 22, 22, 20, 19, 24, 22, 20, 18, 16, 15, 13, 11, 11, 21, 20, 20, 19, 19, 19, 18, 18, 18, 20, 18, 17, 17, 15, 12, 11, 9, 9, 15, 15, 14, 14, 13, 13, 12, 12, 11, 25, 22, 19, 19, 13, 11, 11, 7, 4, 24, 23, 22, 21, 20, 19, 19, 18, 16, 15, 14, 13, 12, 10, 7, 7, 5, 2, 29, 29, 28, 28, 27, 27, 27, 26, 26, 29, 28, 28, 28, 28, 28, 28, 28, 28, 26, 24, 22, 19, 18, 17, 16, 15, 12, 28, 26, 21, 17, 14, 11, 8, 8, 2, 30, 27, 25, 25, 22, 21, 18, 16, 16, 26, 22, 21, 20, 17, 15, 13, 9, 7, 30, 28, 25, 24, 23, 21, 21, 19, 18, 15, 15, 14, 13, 12, 12, 11, 11, 10, 12, 11, 9, 9, 8, 8, 6, 6, 5, 17, 15, 15, 13, 13, 11, 9, 9, 7, 25, 21, 18, 17, 14, 13, 10, 8, 6, 17, 17, 15, 15, 12, 12, 11, 8, 7, 24, 19, 18, 17, 14, 11, 9, 7, 6, 29, 27, 27, 25, 24, 22, 22, 20, 19, 29, 28, 28, 28, 28, 28, 28, 28, 28, 29, 29, 29, 28, 28, 27, 26, 26, 26, 16, 15, 13, 11, 10, 9, 8, 6, 6, 11, 10, 10, 10, 10, 9, 9, 9, 9, 3, 3, 3, 3, 2, 2, 2, 2, 2, 21, 17, 14, 13, 11, 10, 7, 5, 2, 29, 29, 28, 27, 27, 26, 25, 24, 24, 23, 23, 23, 23, 22, 22, 22, 22, 22, 22, 21, 21, 21, 21, 21, 21, 21, 21, 25, 20, 20, 17, 14, 11, 9, 7, 2, 9, 9, 9, 9, 9, 9, 9, 9, 9, 11, 10, 10, 10, 10, 10, 10, 10, 10, 29, 25, 23, 21, 19, 17, 12, 10, 10, 29, 27, 25, 24, 24, 21, 20, 20, 18
 |13, 12, 10, 10, 9, 7, 6, 4, 4, 25, 21, 20, 20, 17, 16, 14, 13, 10, 13, 11, 11, 10, 10, 9, 9, 9, 8, 10, 10, 10, 10, 10, 10, 10, 10, 10, 21, 19, 18, 16, 15, 15, 14, 13, 11, 5, 4, 4, 4, 3, 3, 3, 3, 3, 23, 22, 22, 22, 22, 22, 22, 22, 22, 21, 20, 20, 20, 20, 20, 20, 20, 20, 15, 13, 12, 10, 8, 8, 7, 4, 3, 29, 26, 23, 23, 21, 19, 16, 14, 13, 24, 24, 24, 24, 24, 24, 24, 24, 24, 17, 16, 15, 13, 13, 12, 11, 10, 10, 24, 22, 21, 20, 20, 19, 18, 17, 17, 15, 14, 14, 13, 13, 13, 12, 12, 12, 23, 23, 21, 20, 20, 18, 17, 16, 16, 24, 23, 20, 19, 18, 15, 12, 11, 9, 29, 24, 21, 20, 18, 12, 9, 7, 3, 21, 20, 17, 16, 13, 11, 11, 7, 6, 14, 14, 12, 12, 11, 9, 8, 8, 7, 28, 27, 26, 26, 25, 23, 22, 22, 21, 24, 20, 18, 16, 14, 13, 10, 8, 6, 19, 17, 16, 15, 15, 13, 13, 11, 10, 26, 25, 25, 25, 24, 24, 23, 23, 22, 4, 4, 4, 4, 4, 4, 4, 4, 4, 24, 24, 23, 22, 21, 19, 18, 18, 17, 10, 9, 9, 9, 8, 7, 6, 6, 5, 23, 22, 20, 19, 19, 18, 16, 15, 15, 25, 24, 23, 23, 22, 21, 19, 19, 17, 22, 21, 19, 18, 17, 16, 15, 15, 14, 29, 26, 20, 17, 17, 13, 9, 7, 2, 20, 19, 18, 16, 16, 13, 13, 12, 11, 19, 17, 15, 13, 12, 10, 7, 6, 5, 17, 16, 14, 12, 10, 9, 7, 5, 3, 10, 9, 9, 8, 7, 7, 7, 6, 6, 11, 10, 10, 8, 7, 7, 5, 4, 4, 29, 28, 26, 24, 21, 20, 18, 17, 14, 30, 25, 23, 19, 16, 16, 14, 8, 7, 20, 20, 20, 20, 20, 20, 20, 20, 20, 26, 24, 20, 17, 14, 12, 10, 6, 3, 14, 14, 14, 13, 12, 12, 12, 11, 11, 23, 21, 18, 17, 13, 12, 11, 8, 7, 21, 18, 16, 15, 13, 12, 10, 7, 5, 26, 22, 22, 20, 16, 16, 12, 11, 10, 18, 16, 14, 13, 13, 12, 11, 9, 8, 14, 12, 11, 11, 9, 8, 7, 7, 5, 29, 28, 27, 25, 25, 23, 22, 22, 21, 22, 21, 20, 20, 19, 18, 18, 16, 16, 29, 28, 27, 26, 24, 24, 22, 21, 21, 22, 19, 19, 17, 17, 15, 14, 12, 11, 7, 6, 5, 4, 3, 3, 3, 1, 1
 |13, 13, 12, 12, 11, 10, 10, 9, 8, 7, 7, 7, 7, 6, 6, 6, 5, 5, 21, 21, 20, 17, 16, 14, 14, 12, 10, 21, 20, 19, 19, 19, 18, 17, 17, 17, 21, 17, 15, 15, 12, 9, 7, 7, 5, 23, 18, 18, 15, 12, 8, 7, 3, 1, 22, 20, 17, 16, 13, 13, 10, 9, 6, 25, 19, 18, 14, 13, 11, 9, 4, 2, 13, 13, 12, 10, 10, 8, 8, 6, 6, 19, 17, 15, 13, 13, 11, 11, 8, 7, 17, 16, 16, 15, 13, 11, 9, 8, 8, 15, 13, 12, 11, 10, 7, 7, 4, 2, 24, 23, 20, 16, 14, 11, 9, 4, 3, 25, 24, 21, 21, 17, 16, 15, 13, 9, 13, 10, 10, 8, 6, 6, 5, 2, 1, 26, 25, 22, 18, 17, 11, 10, 7, 5, 24, 23, 22, 20, 19, 16, 15, 15, 12, 24, 24, 23, 21, 21, 19, 18, 18, 17, 15, 15, 13, 12, 10, 8, 7, 6, 4, 26, 25, 25, 25, 24, 24, 24, 24, 24, 13, 11, 11, 10, 8, 6, 4, 3, 2, 16, 14, 14, 13, 11, 10, 10, 8, 8, 18, 17, 14, 12, 11, 10, 8, 6, 3, 29, 28, 28, 27, 26, 26, 25, 25, 25, 19, 19, 17, 17, 14, 13, 12, 12, 10, 24, 22, 22, 18, 17, 16, 14, 13, 10, 17, 15, 13, 13, 12, 9, 9, 6, 6, 13, 11, 10, 8, 8, 7, 5, 5, 3, 12, 12, 11, 11, 10, 10, 9, 8, 8, 23, 23, 22, 21, 21, 20, 20, 19, 19, 26, 25, 23, 18, 15, 13, 12, 7, 5, 12, 11, 11, 11, 11, 11, 11, 11, 11, 28, 28, 27, 27, 26, 26, 26, 25, 25, 22, 20, 18, 17, 15, 13, 13, 11, 10, 8, 8, 7, 7, 6, 5, 4, 3, 3, 20, 19, 18, 17, 17, 15, 14, 13, 12, 24, 22, 20, 20, 18, 17, 16, 15, 15, 29, 29, 28, 27, 25, 24, 24, 23, 21, 13, 13, 12, 12, 11, 11, 10, 10, 10, 6, 6, 6, 6, 6, 6, 6, 6, 6, 22, 18, 16, 16, 12, 11, 8, 8, 5, 16, 15, 15, 14, 13, 13, 11, 10, 10, 24, 22, 21, 21, 19, 18, 18, 17, 16, 6, 5, 5, 5, 4, 4, 3, 3, 2, 20, 19, 19, 19, 18, 18, 17, 16, 16, 25, 23, 23, 19, 17, 15, 12, 8, 6, 14, 11, 10, 9, 8, 6, 6, 3, 3, 17, 16, 15, 15, 14, 11, 11, 9, 8, 13, 12, 11, 10, 9, 8, 7, 6, 6, 23, 22, 21, 20, 20, 19, 19, 19, 18|];